c A SAT instance generated from a 3-CNF formula that had 45 clauses and 10 variables
p cnf 10 45
3 -2 6 0
9 -2 -8 0
-4 -9 -1 0
-1 -6 9 0
9 5 7 0
4 8 6 0
-8 2 1 0
-10 3 -4 0
-1 9 -4 0
10 -9 5 0
9 10 -3 0
-7 1 4 0
-9 -1 7 0
2 1 4 0
10 5 8 0
-5 -3 -10 0
9 10 -4 0
10 7 -6 0
-7 2 -4 0
-8 1 -2 0
-4 -5 1 0
5 -6 9 0
-10 -9 -4 0
7 -6 -10 0
-8 2 -5 0
-4 8 -10 0
-3 -10 6 0
-8 -6 -9 0
-7 -4 3 0
-10 8 -6 0
9 -1 -4 0
5 -1 -7 0
7 -3 4 0
8 -7 6 0
-4 8 7 0
5 -3 -4 0
-6 10 8 0
6 3 -10 0
-7 -3 2 0
3 2 -6 0
3 -7 5 0
7 5 1 0
-6 -8 -10 0
10 6 3 0
4 3 -9 0
